r346.ib.bridges2.psc.edu
2024-11-08 17:14:54.335759
Set parameter Username
Set parameter LicenseID to value 762805
Set parameter TokenServer to value "br017.ib.bridges2.psc.edu"
Set parameter LogFile to value "result1354/grblog_r346.ib.bridges2.psc.edu_RelaxFalse_N-1_PSPS_SpanFalse_PFlow_Lazy0_1354_inst10.txt"
Gurobi Optimizer version 11.0.2 build v11.0.2rc0 (linux64 - "Red Hat Enterprise Linux 8.10 (Ootpa)")

CPU model: AMD EPYC 7742 64-Core Processor, instruction set [SSE2|AVX|AVX2]
Thread count: 128 physical cores, 128 logical processors, using up to 32 threads

Optimize a model with 12418040 rows, 10522515 columns and 50896779 nonzeros
Model fingerprint: 0xd7884924
Variable types: 10519170 continuous, 3345 integer (3345 binary)
Coefficient statistics:
  Matrix range     [1e+00, 3e+03]
  Objective range  [1e+00, 1e+01]
  Bounds range     [1e+00, 1e+00]
  RHS range        [1e+00, 4e+04]
Presolve removed 893942 rows and 482 columns (presolve time = 5s) ...
Presolve removed 3821372 rows and 2561939 columns (presolve time = 10s) ...
Presolve removed 4320212 rows and 2894324 columns (presolve time = 15s) ...
Presolve removed 4425865 rows and 2965646 columns (presolve time = 20s) ...
Presolve removed 4439136 rows and 2973589 columns (presolve time = 25s) ...
Presolve removed 4439136 rows and 2973589 columns (presolve time = 31s) ...
Presolve removed 4440108 rows and 2973589 columns (presolve time = 35s) ...
Presolve removed 4443557 rows and 2980000 columns (presolve time = 42s) ...
Presolve removed 5507198 rows and 5101106 columns (presolve time = 46s) ...
Presolve removed 5507198 rows and 5491290 columns (presolve time = 50s) ...
Presolve removed 5511592 rows and 5492063 columns (presolve time = 55s) ...
Presolve removed 5511592 rows and 5492063 columns (presolve time = 60s) ...
Presolve removed 5511592 rows and 5492063 columns (presolve time = 65s) ...
Presolve removed 5511592 rows and 5492063 columns (presolve time = 70s) ...
Presolve removed 5511592 rows and 5492063 columns (presolve time = 75s) ...
Presolve removed 5511592 rows and 5492063 columns (presolve time = 80s) ...
Presolve removed 5511592 rows and 5492063 columns (presolve time = 85s) ...
Presolve removed 5511592 rows and 5492063 columns (presolve time = 90s) ...
Presolve removed 5511592 rows and 5492063 columns (presolve time = 95s) ...
Presolve removed 6450116 rows and 5492087 columns (presolve time = 101s) ...
Presolve removed 6451191 rows and 5492651 columns (presolve time = 106s) ...
Presolve removed 6451191 rows and 5492651 columns (presolve time = 110s) ...
Presolve removed 7141460 rows and 5492651 columns (presolve time = 116s) ...
Presolve removed 7141460 rows and 5493285 columns (presolve time = 122s) ...
Presolve removed 7152706 rows and 5530877 columns (presolve time = 125s) ...
Presolve removed 7171994 rows and 5531100 columns (presolve time = 130s) ...
Presolve removed 7172260 rows and 5531268 columns (presolve time = 137s) ...
Presolve removed 7177547 rows and 5531268 columns (presolve time = 140s) ...
Presolve removed 7182860 rows and 5541890 columns (presolve time = 145s) ...
Presolve removed 7182952 rows and 5541924 columns (presolve time = 150s) ...
Presolve removed 7188185 rows and 5541945 columns (presolve time = 155s) ...
Presolve removed 7188189 rows and 5541949 columns (presolve time = 160s) ...
Presolve removed 7188189 rows and 5541949 columns (presolve time = 165s) ...
Presolve removed 7398462 rows and 5735381 columns (presolve time = 171s) ...
Presolve removed 7398463 rows and 5735381 columns (presolve time = 176s) ...
Presolve removed 7398463 rows and 5735523 columns (presolve time = 180s) ...
Presolve removed 7398469 rows and 5735542 columns (presolve time = 185s) ...
Presolve removed 7401656 rows and 5735734 columns (presolve time = 191s) ...
Presolve removed 7762645 rows and 5735734 columns (presolve time = 196s) ...
Presolve removed 7762881 rows and 5735983 columns (presolve time = 201s) ...
Presolve removed 7762905 rows and 5735993 columns (presolve time = 205s) ...
Presolve removed 7763088 rows and 5735993 columns (presolve time = 211s) ...
Presolve removed 7763089 rows and 5735997 columns (presolve time = 215s) ...
Presolve removed 7763089 rows and 5736008 columns (presolve time = 221s) ...
Presolve removed 7763089 rows and 5736008 columns (presolve time = 225s) ...
Presolve removed 7763089 rows and 5736008 columns (presolve time = 231s) ...
Presolve removed 7763089 rows and 5736008 columns (presolve time = 236s) ...
Presolve removed 7763090 rows and 5736007 columns
Presolve time: 238.17s
Presolved: 4654950 rows, 4786508 columns, 23156124 nonzeros
Variable types: 4784426 continuous, 2082 integer (2082 binary)
Deterministic concurrent LP optimizer: primal simplex, dual simplex, and barrier
Showing barrier log only...

Root barrier log...

Elapsed ordering time = 5s
Ordering time: 8.24s

Barrier statistics:
 Dense cols : 1962
 AA' NZ     : 2.040e+07
 Factor NZ  : 2.232e+08 (roughly 6.0 GB of memory)
 Factor Ops : 1.130e+11 (roughly 1 second per iteration)
 Threads    : 29

                  Objective                Residual
Iter       Primal          Dual         Primal    Dual     Compl     Time
   0   2.03606000e+05 -4.13748467e+07  1.68e+04 1.64e+00  2.42e+02   302s
   1   2.05040515e+05 -4.14181051e+07  1.57e+04 4.42e+00  2.21e+02   308s
   2   1.97290616e+05 -4.06356824e+07  1.27e+04 3.39e+00  1.71e+02   312s
   3   1.93705788e+05 -4.00239436e+07  1.12e+04 2.34e+00  1.45e+02   318s
   4   1.83085534e+05 -3.92706958e+07  8.59e+03 1.28e+00  1.06e+02   322s
   5   1.01345463e+05 -3.77592184e+07  5.93e+03 4.56e-02  6.83e+01   328s
   6   2.38669685e+04 -3.52302938e+07  8.55e+02 9.40e-07  1.16e+01   333s
   7   1.90629834e+04 -2.68199226e+07  5.35e+02 1.62e-07  6.56e+00   337s
   8   1.42326767e+04 -1.39266795e+07  2.40e+02 6.04e-10  2.37e+00   340s
   9   1.17412998e+04 -5.87642948e+06  1.05e+02 2.03e-07  7.83e-01   344s
  10   1.07984473e+04 -2.10115575e+06  5.57e+01 1.21e-08  2.46e-01   348s
  11   1.04440089e+04 -8.89256856e+05  3.77e+01 7.50e-09  9.64e-02   352s
  12   1.00519484e+04 -5.29589442e+05  1.89e+01 1.03e-09  4.99e-02   356s
  13   9.90272809e+03 -3.82044101e+05  1.24e+01 7.05e-10  3.40e-02   361s
  14   9.69082195e+03 -1.83071236e+05  6.65e+00 2.99e-10  1.58e-02   366s
  15   9.29814788e+03 -1.11593383e+05  2.78e+00 1.77e-10  9.44e-03   370s
  16   8.83533677e+03 -6.32521912e+04  1.28e+00 1.07e-10  5.53e-03   374s
  17   8.69855893e+03 -4.11776340e+04  1.08e+00 7.24e-11  3.82e-03   378s
  18   8.36065227e+03 -3.70591899e+04  8.52e-01 6.62e-11  3.47e-03   382s
  19   7.94141583e+03 -2.72680217e+04  7.04e-01 5.09e-11  2.68e-03   387s
  20   7.28094651e+03 -1.84192361e+04  5.39e-01 3.64e-11  1.95e-03   392s
  21   6.98703516e+03 -1.61648782e+04  4.87e-01 3.29e-11  1.76e-03   398s
  22   6.68431957e+03 -1.24724459e+04  4.44e-01 2.64e-11  1.46e-03   405s
  23   6.28095587e+03 -1.04111951e+04  3.90e-01 2.33e-11  1.27e-03   411s
  24   5.94209800e+03 -6.46565020e+03  3.43e-01 1.69e-11  9.42e-04   418s
  25   5.63342761e+03 -4.25308580e+03  3.02e-01 1.31e-11  7.50e-04   424s
  26   5.35105174e+03 -3.11284020e+03  2.66e-01 1.11e-11  6.42e-04   430s
  27   5.09097790e+03 -1.78901334e+03  2.34e-01 3.66e-11  5.22e-04   437s
  28   4.90925619e+03 -1.29754024e+03  2.13e-01 5.92e-11  4.71e-04   442s
  29   4.83484040e+03 -1.00655214e+03  2.04e-01 6.89e-11  4.43e-04   448s
  30   4.57443219e+03 -4.11731762e+02  1.77e-01 5.06e-11  3.78e-04   455s
  31   4.39525080e+03  3.13676220e+02  1.58e-01 2.37e-10  3.09e-04   461s
  32   4.18501563e+03  8.00287691e+02  1.38e-01 2.26e-10  2.57e-04   469s
  33   4.07023398e+03  1.07637795e+03  1.27e-01 2.99e-10  2.27e-04   476s
  34   4.00250892e+03  1.43611853e+03  1.20e-01 3.87e-10  1.95e-04   481s
  35   3.90136566e+03  1.61270390e+03  1.09e-01 3.25e-10  1.74e-04   487s
  36   3.87986276e+03  1.76400550e+03  1.07e-01 2.48e-10  1.60e-04   493s
  37   3.70719038e+03  1.94842011e+03  8.94e-02 2.08e-10  1.33e-04   499s

Barrier performed 37 iterations in 499.13 seconds (351.82 work units)
Barrier solve interrupted - model solved by another algorithm

Concurrent spin time: 31.53s (can be avoided by choosing Method=3)

Solved with dual simplex

Root simplex log...

Iteration    Objective       Primal Inf.    Dual Inf.      Time
  577757    2.8474752e+03   0.000000e+00   0.000000e+00    502s

Root relaxation: objective 2.847475e+03, 577757 iterations, 253.32 seconds (169.30 work units)
Total elapsed time = 539.12s (DegenMoves)
Total elapsed time = 554.36s (DegenMoves)

    Nodes    |    Current Node    |     Objective Bounds      |     Work
 Expl Unexpl |  Obj  Depth IntInf | Incumbent    BestBd   Gap | It/Node Time

     0     0 2847.47517    0  311          - 2847.47517      -     -  569s
     0     0 2849.98084    0  312          - 2849.98084      -     -  575s
H    0     0                    3712.0000000 2849.98084  23.2%     -  586s
H    0     0                    3706.0000000 2849.98084  23.1%     -  596s
H    0     0                    3423.0000000 2849.98084  16.7%     -  603s
     0     0 3095.53059    0  374 3423.00000 3095.53059  9.57%     -  931s
     0     0 3099.65569    0  374 3423.00000 3099.65569  9.45%     - 1226s
     0     0 3099.65569    0  374 3423.00000 3099.65569  9.45%     - 1234s
     0     0 3196.85354    0  372 3423.00000 3196.85354  6.61%     - 2331s
     0     0 3200.98767    0  363 3423.00000 3200.98767  6.49%     - 2841s
     0     0 3201.43460    0  357 3423.00000 3201.43460  6.47%     - 2911s
     0     0 3232.93031    0  315 3423.00000 3232.93031  5.55%     - 3270s
     0     0 3234.52414    0  322 3423.00000 3234.52414  5.51%     - 3680s
     0     0 3234.52635    0  324 3423.00000 3234.52635  5.51%     - 3733s
     0     0 3240.39035    0  316 3423.00000 3240.39035  5.33%     - 3930s
